%nprocs={nproc}
%chk=current.chk
%oldchk=old.chk
# {level}

Conformation

{chrg} {mult}
{xyz}


